NAME: instance_15
TYPE: TSP
COMMENT: 15-city problem
DIMENSION: 15
EDGE_WEIGHT_TYPE: EUC_2D
NODE_COORD_SECTION
0 35 64
1 4 66
2 87 88
3 87 85
4 63 68
5 89 50
6 61 15
7 13 26
8 79 19
9 34 97
10 45 90
11 67 6
12 73 80
13 17 93
14 64 69
EOF
